c This is QMaxSAT 2017 based on 14.07
c This is Glucose 3.0
c This is MiniSat 2.2.0
c WARNING: for repeatability, setting FPU to use double precision
c card = mrwto, comp = 0, pmodel = 0, narr = 12, mct = 52, verb = 0
cr firstCPXsol 0 0 0
c top = 1525567
c |  Number of variables:    162498                                           |
c |  Number of clauses:      181788606                                        |
c |  Weight of hard clauses: 1525567                                          |
c |  Number of soft clauses: 31824                                            |
c |  Number of unit soft clauses: 31824                                       |
c |  Maximum Cardinality (by unit): 18306792     (18306792    )               |
c last restart ## conflicts  :  0 58625 
o 7644 | cpuTime 33.1792 s
c Sum of weights = 1525566
c A number of soft clauses remained = 2652
c MRWTO encoding for Pseudo-Boolean Constraints
c sizeMax=7644
c No.0 Divisor=10	generated by pow1
c No.1 Divisor=10	generated by pow1
c No.2 Divisor=10	generated by pow1
c No.3 Divisor=10	generated by pow1
c p0= 10	p1= 10	p2= 10	p3= 10	
c number of digits = 5
c linkingVar[0].size = 10, linkingVar[1].size = 10, linkingVar[2].size = 10, linkingVar[3].size = 8, linkingVar[4].size = 1, 
c Pseudo-Boolean Constraints: 71134 variables and 630224 clauses
c Sum of weights = 1525566
c A number of soft clauses remained = 2652
c MRWTO encoding for Pseudo-Boolean Constraints
c sizeMax=7644
c No.0 Divisor=10	generated by pow1
c No.1 Divisor=10	generated by pow1
c No.2 Divisor=10	generated by pow1
c No.3 Divisor=10	generated by pow1
c p0= 10	p1= 10	p2= 10	p3= 10	
c number of digits = 5
c linkingVar[0].size = 10, linkingVar[1].size = 10, linkingVar[2].size = 10, linkingVar[3].size = 8, linkingVar[4].size = 1, 
c Pseudo-Boolean Constraints: 71134 variables and 630224 clauses
c Sum of weights = 1525566
c A number of soft clauses remained = 2652
c MRWTO encoding for Pseudo-Boolean Constraints
c sizeMax=7644
c No.0 Divisor=10	generated by pow1
c No.1 Divisor=10	generated by pow1
c No.2 Divisor=10	generated by pow1
c No.3 Divisor=10	generated by pow1
c p0= 10	p1= 10	p2= 10	p3= 10	
c number of digits = 5
c linkingVar[0].size = 10, linkingVar[1].size = 10, linkingVar[2].size = 10, linkingVar[3].size = 8, linkingVar[4].size = 1, 
c Pseudo-Boolean Constraints: 71134 variables and 630224 clauses
c Sum of weights = 1525566
c A number of soft clauses remained = 2652
c MRWTO encoding for Pseudo-Boolean Constraints
c sizeMax=7644
c No.0 Divisor=10	generated by pow1
c No.1 Divisor=10	generated by pow1
c No.2 Divisor=10	generated by pow1
c No.3 Divisor=10	generated by pow1
c p0= 10	p1= 10	p2= 10	p3= 10	
c number of digits = 5
c linkingVar[0].size = 10, linkingVar[1].size = 10, linkingVar[2].size = 10, linkingVar[3].size = 8, linkingVar[4].size = 1, 
c Pseudo-Boolean Constraints: 71134 variables and 630224 clauses
c Sum of weights = 1525566
c A number of soft clauses remained = 2652
c MRWTO encoding for Pseudo-Boolean Constraints
c sizeMax=7644
c No.0 Divisor=10	generated by pow1
c No.1 Divisor=10	generated by pow1
c No.2 Divisor=10	generated by pow1
c No.3 Divisor=10	generated by pow1
c p0= 10	p1= 10	p2= 10	p3= 10	
c number of digits = 5
c linkingVar[0].size = 10, linkingVar[1].size = 10, linkingVar[2].size = 10, linkingVar[3].size = 8, linkingVar[4].size = 1, 
c Pseudo-Boolean Constraints: 71134 variables and 630224 clauses
c Sum of weights = 1525566
c A number of soft clauses remained = 2652
c MRWTO encoding for Pseudo-Boolean Constraints
c sizeMax=7644
c No.0 Divisor=10	generated by pow1
c No.1 Divisor=10	generated by pow1
c No.2 Divisor=10	generated by pow1
c No.3 Divisor=10	generated by pow1
c p0= 10	p1= 10	p2= 10	p3= 10	
c number of digits = 5
c linkingVar[0].size = 10, linkingVar[1].size = 10, linkingVar[2].size = 10, linkingVar[3].size = 8, linkingVar[4].size = 1, 
c Pseudo-Boolean Constraints: 71134 variables and 630224 clauses
c Sum of weights = 1525566
c A number of soft clauses remained = 2652
c MRWTO encoding for Pseudo-Boolean Constraints
c sizeMax=7644
c No.0 Divisor=10	generated by pow1
c No.1 Divisor=10	generated by pow1
c No.2 Divisor=10	generated by pow1
c No.3 Divisor=10	generated by pow1
c p0= 10	p1= 10	p2= 10	p3= 10	
c number of digits = 5
c linkingVar[0].size = 10, linkingVar[1].size = 10, linkingVar[2].size = 10, linkingVar[3].size = 8, linkingVar[4].size = 1, 
c Pseudo-Boolean Constraints: 71134 variables and 630224 clauses
c Sum of weights = 1525566
c A number of soft clauses remained = 2652
c MRWTO encoding for Pseudo-Boolean Constraints
c sizeMax=7644
c No.0 Divisor=10	generated by pow1
c No.1 Divisor=10	generated by pow1
c No.2 Divisor=10	generated by pow1
c No.3 Divisor=10	generated by pow1
c p0= 10	p1= 10	p2= 10	p3= 10	
c number of digits = 5
c linkingVar[0].size = 10, linkingVar[1].size = 10, linkingVar[2].size = 10, linkingVar[3].size = 8, linkingVar[4].size = 1, 
c Pseudo-Boolean Constraints: 71134 variables and 630224 clauses
c Sum of weights = 1525566
c A number of soft clauses remained = 2652
c MRWTO encoding for Pseudo-Boolean Constraints
c sizeMax=7644
c No.0 Divisor=10	generated by pow1
c No.1 Divisor=10	generated by pow1
c No.2 Divisor=10	generated by pow1
c No.3 Divisor=10	generated by pow1
c p0= 10	p1= 10	p2= 10	p3= 10	
c number of digits = 5
c linkingVar[0].size = 10, linkingVar[1].size = 10, linkingVar[2].size = 10, linkingVar[3].size = 8, linkingVar[4].size = 1, 
c Pseudo-Boolean Constraints: 71134 variables and 630224 clauses
c Sum of weights = 1525566
c A number of soft clauses remained = 2652
c MRWTO encoding for Pseudo-Boolean Constraints
c sizeMax=7644
c No.0 Divisor=10	generated by pow1
c No.1 Divisor=10	generated by pow1
c No.2 Divisor=10	generated by pow1
c No.3 Divisor=10	generated by pow1
c p0= 10	p1= 10	p2= 10	p3= 10	
c number of digits = 5
c linkingVar[0].size = 10, linkingVar[1].size = 10, linkingVar[2].size = 10, linkingVar[3].size = 8, linkingVar[4].size = 1, 
c Pseudo-Boolean Constraints: 71134 variables and 630224 clauses
c Sum of weights = 1525566
c A number of soft clauses remained = 2652
c MRWTO encoding for Pseudo-Boolean Constraints
c sizeMax=7644
c No.0 Divisor=10	generated by pow1
c No.1 Divisor=10	generated by pow1
c No.2 Divisor=10	generated by pow1
c No.3 Divisor=10	generated by pow1
c p0= 10	p1= 10	p2= 10	p3= 10	
c number of digits = 5
c linkingVar[0].size = 10, linkingVar[1].size = 10, linkingVar[2].size = 10, linkingVar[3].size = 8, linkingVar[4].size = 1, 
c Pseudo-Boolean Constraints: 71134 variables and 630224 clauses
c Sum of weights = 1525566
c A number of soft clauses remained = 2652
c MRWTO encoding for Pseudo-Boolean Constraints
c sizeMax=7644
c No.0 Divisor=10	generated by pow1
c No.1 Divisor=10	generated by pow1
c No.2 Divisor=10	generated by pow1
c No.3 Divisor=10	generated by pow1
c p0= 10	p1= 10	p2= 10	p3= 10	
c number of digits = 5
c linkingVar[0].size = 10, linkingVar[1].size = 10, linkingVar[2].size = 10, linkingVar[3].size = 8, linkingVar[4].size = 1, 
c Pseudo-Boolean Constraints: 71134 variables and 630224 clauses
c last restart ## conflicts  :  99 127168 
o 6825 | cpuTime 36.4603 s
c last restart ## conflicts  :  85 344869 
o 4737 | cpuTime 36.8312 s
c last restart ## conflicts  :  634 121251 
o 4363 | cpuTime 365.15 s
c last restart ## conflicts  :  62 70766 
o 4179 | cpuTime 702.98 s
c last restart ## conflicts  :  384 75699 
o 3812 | cpuTime 1276.98 s
s UNKNOWN
c Search is stopped by a limit (maybe time-limit)
cr positiVarArr: [ | 22@1(1->22) | 125@1(3->21) | 284@1(6->24) | 925@1(18->41) | 1041@1(21->1) | 1098@1(22->6) | 1244@1(24->48) | 1578@1(31->18) | 1643@1(32->31) | 1696@1(33->32) | 2083@1(41->3) | 2477@1(48->33) | 2753@2(1->49) | 2861@2(4->1) | 2928@2(5->16) | 3437@2(15->5) | 3507@2(16->23) | 3540@2(17->4) | 3865@2(23->17) | 5215@2(49->15) | 5422@3(1->14) | 5981@3(12->1) | 6112@3(14->28) | 6760@3(26->52) | 6838@3(28->26) | 8072@3(52->12) | 8159@4(1->47) | 10505@4(47->1) | 10829@5(1->13) | 11441@5(13->1) | 13558@6(1->38) | 15341@6(36->1) | 15490@6(38->46) | 15896@6(46->36) | 16254@7(1->30) | 16788@7(11->44) | 17587@7(27->11) | 17759@7(30->27) | 18461@7(44->1) | 18978@8(1->50) | 18981@8(2->1) | 19242@8(7->2) | 19301@8(8->9) | 19378@8(9->34) | 19872@8(19->8) | 20403@8(29->19) | 20679@8(34->35) | 20741@8(35->45) | 21223@8(45->7) | 21505@8(50->29) | 21657@9(1->25) | 22922@9(25->42) | 23661@9(40->1) | 23804@9(42->40) | 24387@10(1->51) | 26937@10(51->1) | 27083@11(1->43) | 27547@11(10->39) | 28922@11(37->10) | 29017@11(39->1) | 29261@11(43->37) | 29764@12(1->20) | 30733@12(20->1) | ]
cr the 1-th chain: [ 1->22->6->24->48->33->32->31->18->41->3->21->1 ] (#non-depot=11) {#cumul.=12}
cr the 2-th chain: [ 1->49->15->5->16->23->17->4->1 ] (#non-depot=7) {#cumul.=19}
cr the 3-th chain: [ 1->14->28->26->52->12->1 ] (#non-depot=5) {#cumul.=24}
cr the 4-th chain: [ 1->47->1 ] (#non-depot=1) {#cumul.=25}
cr the 5-th chain: [ 1->13->1 ] (#non-depot=1) {#cumul.=26}
cr the 6-th chain: [ 1->38->46->36->1 ] (#non-depot=3) {#cumul.=29}
cr the 7-th chain: [ 1->30->27->11->44->1 ] (#non-depot=4) {#cumul.=33}
cr the 8-th chain: [ 1->50->29->19->8->9->34->35->45->7->2->1 ] (#non-depot=10) {#cumul.=43}
cr the 9-th chain: [ 1->25->42->40->1 ] (#non-depot=3) {#cumul.=46}
cr the 10-th chain: [ 1->51->1 ] (#non-depot=1) {#cumul.=47}
cr the 11-th chain: [ 1->43->37->10->39->1 ] (#non-depot=4) {#cumul.=51}
cr the 12-th chain: [ 1->20->1 ] (#non-depot=1) {#cumul.=52}
c Latest Answer = 0 by 6 loops
c restarts              : 24600
c conflicts             : 4499325        (1256 /sec)
c decisions             : 344382925      (0.00 % random) (96104 /sec)
c propagations          : 22089013644    (6164185 /sec)
c conflict literals     : 2774401449     (14.15 % deleted)
c Memory used           : 14966.00 MB
c CPU time              : 3583.44 s
